sat
(:max-memory         18.43
 :memory             18.43
 :nlsat-arith-var    3
 :nlsat-atoms        9
 :nlsat-bool-var     1
 :nlsat-clauses      9
 :nlsat-propagations 9
 :nlsat-stages       4
 :num-allocs         41263
 :rlimit-count       1815
 :time               0.00
 :total-time         0.01)
